GLPSOL--GLPK LP/MIP Solver 5.0
Parameter(s) specified in the command line:
 --lp ../modeles/4_379.lp --log 4_379.log
Reading problem data from '../modeles/4_379.lp'...
1533 rows, 3040 columns, 10632 non-zeros
1516 integer variables, all of which are binary
4583 lines were read
GLPK Integer Optimizer 5.0
1533 rows, 3040 columns, 10632 non-zeros
1516 integer variables, all of which are binary
Preprocessing...
1496 constraint coefficient(s) were reduced
1533 rows, 3036 columns, 10628 non-zeros
1516 integer variables, all of which are binary
Scaling...
 A: min|aij| =  2.785e-05  max|aij| =  4.000e+00  ratio =  1.436e+05
GM: min|aij| =  5.137e-02  max|aij| =  1.947e+01  ratio =  3.790e+02
EQ: min|aij| =  2.639e-03  max|aij| =  1.000e+00  ratio =  3.790e+02
2N: min|aij| =  1.782e-03  max|aij| =  1.768e+00  ratio =  9.923e+02
Constructing initial basis...
Size of triangular part is 1533
Solving LP relaxation...
GLPK Simplex Optimizer 5.0
1533 rows, 3036 columns, 10628 non-zeros
      0: obj =   8.000000000e+00 inf =   1.950e+01 (9)
     83: obj =   4.999477861e-01 inf =   0.000e+00 (0)
*   281: obj =  -1.999950879e+00 inf =   1.868e-15 (0)
OPTIMAL LP SOLUTION FOUND
Integer optimization begins...
Long-step dual simplex will be used
+   281: mip =     not found yet >=              -inf        (1; 0)
+   497: >>>>>  -1.999950879e+00 >=  -1.999950879e+00 < 0.1% (216; 0)
+   497: mip =  -1.999950879e+00 >=     tree is empty   0.0% (0; 431)
INTEGER OPTIMAL SOLUTION FOUND
Time used:   0.5 secs
Memory used: 4.4 Mb (4623838 bytes)
